asp/input/in_60_30_8_1.lp
#const n = 60.
#const k = 30.
#const h = 8.
tile(1,24,14).
tile(2,29,21).
tile(3,12,27).
tile(4,18,5).
tile(5,2,1).
tile(6,17,18).
tile(7,15,22).
tile(8,12,3).
tile(9,17,11).
tile(10,26,16).
tile(11,22,16).
tile(12,15,30).
tile(13,4,5).
tile(14,19,28).
tile(15,12,30).
tile(16,15,5).
tile(17,6,21).
tile(18,15,3).
tile(19,24,8).
tile(20,3,20).
tile(21,15,26).
tile(22,4,22).
tile(23,4,14).
tile(24,20,8).
tile(25,22,3).
tile(26,28,18).
tile(27,27,17).
tile(28,8,9).
tile(29,17,25).
tile(30,15,26).
tile(31,23,14).
tile(32,7,4).
tile(33,2,22).
tile(34,16,26).
tile(35,2,17).
tile(36,12,9).
tile(37,29,22).
tile(38,4,18).
tile(39,14,24).
tile(40,24,18).
tile(41,26,22).
tile(42,23,21).
tile(43,24,14).
tile(44,13,16).
tile(45,13,7).
tile(46,30,4).
tile(47,15,21).
tile(48,27,13).
tile(49,1,28).
tile(50,16,23).
tile(51,14,28).
tile(52,1,2).
tile(53,13,13).
tile(54,4,30).
tile(55,22,26).
tile(56,15,10).
tile(57,13,10).
tile(58,13,10).
tile(59,23,30).
tile(60,18,1).
