minizinc/input/in_60_30_8_1.dzn
n = 60;
k = 30;
h = 8;
tiles = array2d(1..n, 1..2,
[ 24,14
, 29,21
, 12,27
, 18,5
, 2,1
, 17,18
, 15,22
, 12,3
, 17,11
, 26,16
, 22,16
, 15,30
, 4,5
, 19,28
, 12,30
, 15,5
, 6,21
, 15,3
, 24,8
, 3,20
, 15,26
, 4,22
, 4,14
, 20,8
, 22,3
, 28,18
, 27,17
, 8,9
, 17,25
, 15,26
, 23,14
, 7,4
, 2,22
, 16,26
, 2,17
, 12,9
, 29,22
, 4,18
, 14,24
, 24,18
, 26,22
, 23,21
, 24,14
, 13,16
, 13,7
, 30,4
, 15,21
, 27,13
, 1,28
, 16,23
, 14,28
, 1,2
, 13,13
, 4,30
, 22,26
, 15,10
, 13,10
, 13,10
, 23,30
, 18,1
]);